docs/2022-03-21-ModelsBigM/BigMLazyCon_15.lp
\ENCODING=ISO-8859-1
\Problem name: ilog.cplex

Minimize
 obj: _165step1#20 + _165step2#21 + _165step3#22 + _166step1#43 + _166step2#44
      + _166step3#45 + _107step1#71 + _107step2#72 + _107step3#73
      + _155step1#91 + _155step2#92 + _155step3#93 + _158step1#101
      + _158step2#102 + _158step3#103
Subject To
 LB_165T25#0:                    _165T25#0 >= 2961
 LB_165T24#1:                    _165T24#1 >= 3173
 prec_165T24_165T25#2:           - _165T25#0 + _165T24#1 >= 212
 LB_165T23#3:                    _165T23#2 >= 3351
 prec_165T23_165T24#4:           - _165T24#1 + _165T23#2 >= 178
 LB_165T22#5:                    _165T22#3 >= 3531
 prec_165T22_165T23#6:           - _165T23#2 + _165T22#3 >= 180
 LB_165T21#7:                    _165T21#4 >= 3711
 prec_165T21_165T22#8:           - _165T22#3 + _165T21#4 >= 180
 LB_165T20#9:                    _165T20#5 >= 3860
 prec_165T20_165T21#10:          - _165T21#4 + _165T20#5 >= 149
 LB_165T19#11:                   _165T19#6 >= 3905
 prec_165T19_165T20#12:          - _165T20#5 + _165T19#6 >= 45
 LB_165T18#13:                   _165T18#7 >= 4161
 prec_165T18_165T19#14:          - _165T19#6 + _165T18#7 >= 256
 LB_165T17#15:                   _165T17#8 >= 4491
 prec_165T17_165T18#16:          - _165T18#7 + _165T17#8 >= 330
 LB_165T16#17:                   _165T16#9 >= 4731
 prec_165T16_165T17#18:          - _165T17#8 + _165T16#9 >= 240
 LB_165T15#19:                   _165T15#10 >= 4971
 prec_165T15_165T16#20:          - _165T16#9 + _165T15#10 >= 240
 LB_165T14#21:                   _165T14#11 >= 5151
 prec_165T14_165T15#22:          - _165T15#10 + _165T14#11 >= 180
 LB_165T13#23:                   _165T13#12 >= 5359
 prec_165T13_165T14#24:          - _165T14#11 + _165T13#12 >= 208
 LB_165T12#25:                   _165T12#13 >= 5440
 prec_165T12_165T13#26:          - _165T13#12 + _165T12#13 >= 81
 LB_165T11#27:                   _165T11#14 >= 5641
 prec_165T11_165T12#28:          - _165T12#13 + _165T11#14 >= 201
 LB_165T10#29:                   _165T10#15 >= 6521
 prec_165T10_165T11#30:          - _165T11#14 + _165T10#15 >= 880
 LB_165T9#31:                    _165T9#16 >= 6941
 prec_165T9_165T10#32:           - _165T10#15 + _165T9#16 >= 420
 LB_165T8#33:                    _165T8#17 >= 7211
 prec_165T8_165T9#34:            - _165T9#16 + _165T8#17 >= 270
 LB_165T7#35:                    _165T7#18 >= 7541
 prec_165T7_165T8#36:            - _165T8#17 + _165T7#18 >= 330
 LB_165T6#37:                    _165T6#19 >= 7721
 prec_165T6_165T7#38:            - _165T7#18 + _165T6#19 >= 180
 _165step1#39:                   _165T6#19 - 108120 _165step1#20 <= 7721
 _165step2#40:                   _165T6#19 - 107940 _165step2#21 <= 7901
 _165step3#41:                   _165T6#19 - 107760 _165step3#22 <= 8081
 LB_166T6#42:                    _166T6#23 >= 801
 LB_166T7#43:                    _166T7#24 >= 1101
 prec_166T7_166T6#44:            - _166T6#23 + _166T7#24 >= 300
 LB_166T8#45:                    _166T8#25 >= 1281
 prec_166T8_166T7#46:            - _166T7#24 + _166T8#25 >= 180
 LB_166T9#47:                    _166T9#26 >= 1581
 prec_166T9_166T8#48:            - _166T8#25 + _166T9#26 >= 300
 LB_166T10#49:                   _166T10#27 >= 1821
 prec_166T10_166T9#50:           - _166T9#26 + _166T10#27 >= 240
 LB_166T11#51:                   _166T11#28 >= 2061
 prec_166T11_166T10#52:          - _166T10#27 + _166T11#28 >= 240
 LB_166T12#53:                   _166T12#29 >= 2421
 prec_166T12_166T11#54:          - _166T11#28 + _166T12#29 >= 360
 LB_166T13#55:                   _166T13#30 >= 2528
 prec_166T13_166T12#56:          - _166T12#29 + _166T13#30 >= 107
 LB_166T14#57:                   _166T14#31 >= 2600
 prec_166T14_166T13#58:          - _166T13#30 + _166T14#31 >= 72
 LB_166T15#59:                   _166T15#32 >= 2841
 prec_166T15_166T14#60:          - _166T14#31 + _166T15#32 >= 241
 LB_166T16#61:                   _166T16#33 >= 3021
 prec_166T16_166T15#62:          - _166T15#32 + _166T16#33 >= 180
 LB_166T17#63:                   _166T17#34 >= 3141
 prec_166T17_166T16#64:          - _166T16#33 + _166T17#34 >= 120
 LB_166T18#65:                   _166T18#35 >= 3321
 prec_166T18_166T17#66:          - _166T17#34 + _166T18#35 >= 180
 LB_166T19#67:                   _166T19#36 >= 3801
 prec_166T19_166T18#68:          - _166T18#35 + _166T19#36 >= 480
 LB_166T20#69:                   _166T20#37 >= 3891
 prec_166T20_166T19#70:          - _166T19#36 + _166T20#37 >= 90
 LB_166T21#71:                   _166T21#38 >= 3921
 prec_166T21_166T20#72:          - _166T20#37 + _166T21#38 >= 30
 LB_166T22#73:                   _166T22#39 >= 4101
 prec_166T22_166T21#74:          - _166T21#38 + _166T22#39 >= 180
 LB_166T23#75:                   _166T23#40 >= 4221
 prec_166T23_166T22#76:          - _166T22#39 + _166T23#40 >= 120
 LB_166T24#77:                   _166T24#41 >= 4341
 prec_166T24_166T23#78:          - _166T23#40 + _166T24#41 >= 120
 LB_166T25#79:                   _166T25#42 >= 4451
 prec_166T25_166T24#80:          - _166T24#41 + _166T25#42 >= 110
 _166step1#81:                   _166T25#42 - 108120 _166step1#43 <= 4451
 _166step2#82:                   _166T25#42 - 107940 _166step2#44 <= 4631
 _166step3#83:                   _166T25#42 - 107760 _166step3#45 <= 4811
 LB_107T25#84:                   _107T25#46 >= 201
 LB_107T24#85:                   _107T24#47 >= 1184
 prec_107T24_107T25#86:          - _107T25#46 + _107T24#47 >= 983
 LB_107T23#87:                   _107T23#48 >= 1348
 prec_107T23_107T24#88:          - _107T24#47 + _107T23#48 >= 164
 LB_107T22#89:                   _107T22#49 >= 1422
 prec_107T22_107T23#90:          - _107T23#48 + _107T22#49 >= 74
 LB_107T21#91:                   _107T21#50 >= 1465
 prec_107T21_107T22#92:          - _107T22#49 + _107T21#50 >= 43
 LB_107T20#93:                   _107T20#51 >= 1669
 prec_107T20_107T21#94:          - _107T21#50 + _107T20#51 >= 204
 LB_107T19#95:                   _107T19#52 >= 1725
 prec_107T19_107T20#96:          - _107T20#51 + _107T19#52 >= 56
 LB_107T18#97:                   _107T18#53 >= 1894
 prec_107T18_107T19#98:          - _107T19#52 + _107T18#53 >= 169
 LB_107T17#99:                   _107T17#54 >= 2111
 prec_107T17_107T18#100:         - _107T18#53 + _107T17#54 >= 217
 LB_107T16#101:                  _107T16#55 >= 3981
 prec_107T16_107T17#102:         - _107T17#54 + _107T16#55 >= 1870
 LB_107T15#103:                  _107T15#56 >= 4958
 prec_107T15_107T16#104:         - _107T16#55 + _107T15#56 >= 977
 LB_107T14#105:                  _107T14#57 >= 5063
 prec_107T14_107T15#106:         - _107T15#56 + _107T14#57 >= 105
 LB_107T13#107:                  _107T13#58 >= 5280
 prec_107T13_107T14#108:         - _107T14#57 + _107T13#58 >= 217
 LB_107T12#109:                  _107T12#59 >= 5388
 prec_107T12_107T13#110:         - _107T13#58 + _107T12#59 >= 108
 LB_107T11#111:                  _107T11#60 >= 5550
 prec_107T11_107T12#112:         - _107T12#59 + _107T11#60 >= 162
 LB_107T10#113:                  _107T10#61 >= 5975
 prec_107T10_107T11#114:         - _107T11#60 + _107T10#61 >= 425
 LB_107T9#115:                   _107T9#62 >= 6275
 prec_107T9_107T10#116:          - _107T10#61 + _107T9#62 >= 300
 LB_107T8#117:                   _107T8#63 >= 7101
 prec_107T8_107T9#118:           - _107T9#62 + _107T8#63 >= 826
 LB_107T7#119:                   _107T7#64 >= 7804
 prec_107T7_107T8#120:           - _107T8#63 + _107T7#64 >= 703
 LB_107T6#121:                   _107T6#65 >= 8045
 prec_107T6_107T7#122:           - _107T7#64 + _107T6#65 >= 241
 LB_107T5#123:                   _107T5#66 >= 21261
 prec_107T5_107T6#124:           - _107T6#65 + _107T5#66 >= 13216
 LB_107T4#125:                   _107T4#67 >= 28012
 prec_107T4_107T5#126:           - _107T5#66 + _107T4#67 >= 6751
 LB_107T3#127:                   _107T3#68 >= 28291
 prec_107T3_107T4#128:           - _107T4#67 + _107T3#68 >= 279
 LB_107T2#129:                   _107T2#69 >= 29421
 prec_107T2_107T3#130:           - _107T3#68 + _107T2#69 >= 1130
 LB_107T1#131:                   _107T1#70 >= 30185
 prec_107T1_107T2#132:           - _107T2#69 + _107T1#70 >= 764
 _107step1#133:                  _107T1#70 - 108120 _107step1#71 <= 30185
 _107step2#134:                  _107T1#70 - 107940 _107step2#72 <= 30365
 _107step3#135:                  _107T1#70 - 107760 _107step3#73 <= 30545
 LB_155T22#136:                  _155T22#74 >= 157
 LB_155T21#137:                  _155T21#75 >= 337
 prec_155T21_155T22#138:         - _155T22#74 + _155T21#75 >= 180
 LB_155T20#139:                  _155T20#76 >= 486
 prec_155T20_155T21#140:         - _155T21#75 + _155T20#76 >= 149
 LB_155T19#141:                  _155T19#77 >= 531
 prec_155T19_155T20#142:         - _155T20#76 + _155T19#77 >= 45
 LB_155T18#143:                  _155T18#78 >= 787
 prec_155T18_155T19#144:         - _155T19#77 + _155T18#78 >= 256
 LB_155T17#145:                  _155T17#79 >= 1117
 prec_155T17_155T18#146:         - _155T18#78 + _155T17#79 >= 330
 LB_155T16#147:                  _155T16#80 >= 1357
 prec_155T16_155T17#148:         - _155T17#79 + _155T16#80 >= 240
 LB_155T15#149:                  _155T15#81 >= 1597
 prec_155T15_155T16#150:         - _155T16#80 + _155T15#81 >= 240
 LB_155T14#151:                  _155T14#82 >= 1777
 prec_155T14_155T15#152:         - _155T15#81 + _155T14#82 >= 180
 LB_155T13#153:                  _155T13#83 >= 1985
 prec_155T13_155T14#154:         - _155T14#82 + _155T13#83 >= 208
 LB_155T12#155:                  _155T12#84 >= 2066
 prec_155T12_155T13#156:         - _155T13#83 + _155T12#84 >= 81
 LB_155T11#157:                  _155T11#85 >= 2267
 prec_155T11_155T12#158:         - _155T12#84 + _155T11#85 >= 201
 LB_155T10#159:                  _155T10#86 >= 3147
 prec_155T10_155T11#160:         - _155T11#85 + _155T10#86 >= 880
 LB_155T9#161:                   _155T9#87 >= 3567
 prec_155T9_155T10#162:          - _155T10#86 + _155T9#87 >= 420
 LB_155T8#163:                   _155T8#88 >= 3837
 prec_155T8_155T9#164:           - _155T9#87 + _155T8#88 >= 270
 LB_155T7#165:                   _155T7#89 >= 4167
 prec_155T7_155T8#166:           - _155T8#88 + _155T7#89 >= 330
 LB_155T6#167:                   _155T6#90 >= 4347
 prec_155T6_155T7#168:           - _155T7#89 + _155T6#90 >= 180
 _155step1#169:                  _155T6#90 - 108120 _155step1#91 <= 4190
 _155step2#170:                  _155T6#90 - 107940 _155step2#92 <= 4370
 _155step3#171:                  _155T6#90 - 107760 _155step3#93 <= 4550
 LB_158T19#172:                  _158T19#94 >= 201
 LB_158T20#173:                  _158T20#95 >= 291
 prec_158T20_158T19#174:         - _158T19#94 + _158T20#95 >= 90
 LB_158T21#175:                  _158T21#96 >= 321
 prec_158T21_158T20#176:         - _158T20#95 + _158T21#96 >= 30
 LB_158T22#177:                  _158T22#97 >= 501
 prec_158T22_158T21#178:         - _158T21#96 + _158T22#97 >= 180
 LB_158T23#179:                  _158T23#98 >= 621
 prec_158T23_158T22#180:         - _158T22#97 + _158T23#98 >= 120
 LB_158T24#181:                  _158T24#99 >= 741
 prec_158T24_158T23#182:         - _158T23#98 + _158T24#99 >= 120
 LB_158T25#183:                  _158T25#100 >= 851
 prec_158T25_158T24#184:         - _158T24#99 + _158T25#100 >= 110
 _158step1#185:                  _158T25#100 - 108120 _158step1#101 <= 851
 _158step2#186:                  _158T25#100 - 107940 _158step2#102 <= 1031
 _158step3#187:                  _158T25#100 - 107760 _158step3#103 <= 1211
 Domain_107T6_vs_155T6#188:      _107T6prec155T6#104 >= 0
 InitiDisj_107T6_vs_165T6#189:   _165T6#19 - _107T6#65
                                 + 108120 _107T6prec165T6#105 >= 6856
 InitiDisj_165T6_vs_107T6#190:   - _165T6#19 + _107T6#65
                                 - 108120 _107T6prec165T6#105 >= -107700
 Domain_107T6_vs_166T6#191:      _107T6prec166T6#106 >= 0
 Domain_155T6_vs_165T6#192:      _155T6prec165T6#107 >= 0
 Domain_155T6_vs_166T6#193:      _155T6prec166T6#108 >= 0
 Domain_165T6_vs_166T6#194:      _165T6prec166T6#109 >= 0
 Domain_107T7_vs_155T7#195:      _107T7prec155T7#110 >= 0
 Domain_107T7_vs_165T7#196:      _107T7prec165T7#111 >= 0
 Domain_107T7_vs_166T7#197:      _107T7prec166T7#112 >= 0
 Domain_155T7_vs_165T7#198:      _155T7prec165T7#113 >= 0
 Domain_155T7_vs_166T7#199:      _155T7prec166T7#114 >= 0
 Domain_165T7_vs_166T7#200:      _165T7prec166T7#115 >= 0
 Domain_107T8_vs_155T8#201:      _107T8prec155T8#116 >= 0
 InitiDisj_107T8_vs_165T8#202:   _165T8#17 - _107T8#63
                                 + 108120 _107T8prec165T8#117 >= 703
 InitiDisj_165T8_vs_107T8#203:   - _165T8#17 + _107T8#63
                                 - 108120 _107T8prec165T8#117 >= -107790
 Domain_107T8_vs_166T8#204:      _107T8prec166T8#118 >= 0
 Domain_155T8_vs_165T8#205:      _155T8prec165T8#119 >= 0
 Domain_155T8_vs_166T8#206:      _155T8prec166T8#120 >= 0
 Domain_165T8_vs_166T8#207:      _165T8prec166T8#121 >= 0
 Domain_107T9_vs_155T9#208:      _107T9prec155T9#122 >= 0
 Domain_107T9_vs_165T9#209:      _107T9prec165T9#123 >= 0
 Domain_107T9_vs_166T9#210:      _107T9prec166T9#124 >= 0
 Domain_155T9_vs_165T9#211:      _155T9prec165T9#125 >= 0
 Domain_155T9_vs_166T9#212:      _155T9prec166T9#126 >= 0
 Domain_165T9_vs_166T9#213:      _165T9prec166T9#127 >= 0
 Domain_107T10_vs_155T10#214:    _107T10prec155T10#128 >= 0
 Domain_107T10_vs_165T10#215:    _107T10prec165T10#129 >= 0
 Domain_107T10_vs_166T10#216:    _107T10prec166T10#130 >= 0
 Domain_155T10_vs_165T10#217:    _155T10prec165T10#131 >= 0
 Domain_155T10_vs_166T10#218:    _155T10prec166T10#132 >= 0
 Domain_165T10_vs_166T10#219:    _165T10prec166T10#133 >= 0
 Domain_107T11_vs_155T11#220:    _107T11prec155T11#134 >= 0
 InitiDisj_107T11_vs_165T11#221: _165T11#14 - _107T11#60
                                 + 108120 _107T11prec165T11#135 >= 425
 InitiDisj_165T11_vs_107T11#222: - _165T11#14 + _107T11#60
                                 - 108120 _107T11prec165T11#135 >= -107420
 Domain_107T11_vs_166T11#223:    _107T11prec166T11#136 >= 0
 Domain_155T11_vs_165T11#224:    _155T11prec165T11#137 >= 0
 InitiDisj_155T11_vs_166T11#225: _166T11#28 - _155T11#85
                                 + 108120 _155T11prec166T11#138 >= 700
 InitiDisj_166T11_vs_155T11#226: - _166T11#28 + _155T11#85
                                 - 108120 _155T11prec166T11#138 >= -107800
 Domain_165T11_vs_166T11#227:    _165T11prec166T11#139 >= 0
 Domain_107T12_vs_155T12#228:    _107T12prec155T12#140 >= 0
 InitiDisj_107T12_vs_165T12#229: _165T12#13 - _107T12#59
                                 + 108120 _107T12prec165T12#141 >= 162
 InitiDisj_165T12_vs_107T12#230: - _165T12#13 + _107T12#59
                                 - 108120 _107T12prec165T12#141 >= -107959
 Domain_107T12_vs_166T12#231:    _107T12prec166T12#142 >= 0
 Domain_155T12_vs_165T12#232:    _155T12prec165T12#143 >= 0
 Domain_155T12_vs_166T12#233:    _155T12prec166T12#144 >= 0
 Domain_165T12_vs_166T12#234:    _165T12prec166T12#145 >= 0
 Domain_107T13_vs_155T13#235:    _107T13prec155T13#146 >= 0
 InitiDisj_107T13_vs_165T13#236: _165T13#12 - _107T13#58
                                 + 108120 _107T13prec165T13#147 >= 108
 InitiDisj_165T13_vs_107T13#237: - _165T13#12 + _107T13#58
                                 - 108120 _107T13prec165T13#147 >= -108039
 Domain_107T13_vs_166T13#238:    _107T13prec166T13#148 >= 0
 Domain_155T13_vs_165T13#239:    _155T13prec165T13#149 >= 0
 Domain_155T13_vs_166T13#240:    _155T13prec166T13#150 >= 0
 Domain_165T13_vs_166T13#241:    _165T13prec166T13#151 >= 0
 Domain_107T14_vs_155T14#242:    _107T14prec155T14#152 >= 0
 InitiDisj_107T14_vs_165T14#243: _165T14#11 - _107T14#57
                                 + 108120 _107T14prec165T14#153 >= 217
 InitiDisj_165T14_vs_107T14#244: - _165T14#11 + _107T14#57
                                 - 108120 _107T14prec165T14#153 >= -107912
 Domain_107T14_vs_166T14#245:    _107T14prec166T14#154 >= 0
 Domain_155T14_vs_165T14#246:    _155T14prec165T14#155 >= 0
 Domain_155T14_vs_166T14#247:    _155T14prec166T14#156 >= 0
 Domain_165T14_vs_166T14#248:    _165T14prec166T14#157 >= 0
 Domain_107T15_vs_155T15#249:    _107T15prec155T15#158 >= 0
 InitiDisj_107T15_vs_165T15#250: _165T15#10 - _107T15#56
                                 + 108120 _107T15prec165T15#159 >= 105
 InitiDisj_165T15_vs_107T15#251: - _165T15#10 + _107T15#56
                                 - 108120 _107T15prec165T15#159 >= -107970
 Domain_107T15_vs_166T15#252:    _107T15prec166T15#160 >= 0
 Domain_155T15_vs_165T15#253:    _155T15prec165T15#161 >= 0
 Domain_155T15_vs_166T15#254:    _155T15prec166T15#162 >= 0
 Domain_165T15_vs_166T15#255:    _165T15prec166T15#163 >= 0
 Domain_107T16_vs_155T16#256:    _107T16prec155T16#164 >= 0
 InitiDisj_107T16_vs_165T16#257: _165T16#9 - _107T16#55
                                 + 108120 _107T16prec165T16#165 >= 977
 InitiDisj_165T16_vs_107T16#258: - _165T16#9 + _107T16#55
                                 - 108120 _107T16prec165T16#165 >= -107910
 Domain_107T16_vs_166T16#259:    _107T16prec166T16#166 >= 0
 Domain_155T16_vs_165T16#260:    _155T16prec165T16#167 >= 0
 Domain_155T16_vs_166T16#261:    _155T16prec166T16#168 >= 0
 Domain_165T16_vs_166T16#262:    _165T16prec166T16#169 >= 0
 Domain_107T17_vs_155T17#263:    _107T17prec155T17#170 >= 0
 Domain_107T17_vs_165T17#264:    _107T17prec165T17#171 >= 0
 Domain_107T17_vs_166T17#265:    _107T17prec166T17#172 >= 0
 Domain_155T17_vs_165T17#266:    _155T17prec165T17#173 >= 0
 Domain_155T17_vs_166T17#267:    _155T17prec166T17#174 >= 0
 Domain_165T17_vs_166T17#268:    _165T17prec166T17#175 >= 0
 Domain_107T18_vs_155T18#269:    _107T18prec155T18#176 >= 0
 Domain_107T18_vs_165T18#270:    _107T18prec165T18#177 >= 0
 Domain_107T18_vs_166T18#271:    _107T18prec166T18#178 >= 0
 Domain_155T18_vs_165T18#272:    _155T18prec165T18#179 >= 0
 Domain_155T18_vs_166T18#273:    _155T18prec166T18#180 >= 0
 Domain_165T18_vs_166T18#274:    _165T18prec166T18#181 >= 0
 Domain_107T19_vs_155T19#275:    _107T19prec155T19#182 >= 0
 Domain_107T19_vs_158T19#276:    _107T19prec158T19#183 >= 0
 Domain_107T19_vs_165T19#277:    _107T19prec165T19#184 >= 0
 Domain_107T19_vs_166T19#278:    _107T19prec166T19#185 >= 0
 Domain_155T19_vs_158T19#279:    _155T19prec158T19#186 >= 0
 Domain_155T19_vs_165T19#280:    _155T19prec165T19#187 >= 0
 Domain_155T19_vs_166T19#281:    _155T19prec166T19#188 >= 0
 Domain_158T19_vs_165T19#282:    _158T19prec165T19#189 >= 0
 Domain_158T19_vs_166T19#283:    _158T19prec166T19#190 >= 0
 Domain_165T19_vs_166T19#284:    _165T19prec166T19#191 >= 0
 Domain_107T20_vs_155T20#285:    _107T20prec155T20#192 >= 0
 Domain_107T20_vs_158T20#286:    _107T20prec158T20#193 >= 0
 Domain_107T20_vs_165T20#287:    _107T20prec165T20#194 >= 0
 Domain_107T20_vs_166T20#288:    _107T20prec166T20#195 >= 0
 Domain_155T20_vs_158T20#289:    _155T20prec158T20#196 >= 0
 Domain_155T20_vs_165T20#290:    _155T20prec165T20#197 >= 0
 Domain_155T20_vs_166T20#291:    _155T20prec166T20#198 >= 0
 Domain_158T20_vs_165T20#292:    _158T20prec165T20#199 >= 0
 Domain_158T20_vs_166T20#293:    _158T20prec166T20#200 >= 0
 InitiDisj_165T20_vs_166T20#294: - _165T20#5 + _166T20#37
                                 + 108120 _165T20prec166T20#201 >= 45
 InitiDisj_166T20_vs_165T20#295: _165T20#5 - _166T20#37
                                 - 108120 _165T20prec166T20#201 >= -108090
 Domain_107T21_vs_155T21#296:    _107T21prec155T21#202 >= 0
 Domain_107T21_vs_158T21#297:    _107T21prec158T21#203 >= 0
 Domain_107T21_vs_165T21#298:    _107T21prec165T21#204 >= 0
 Domain_107T21_vs_166T21#299:    _107T21prec166T21#205 >= 0
 InitiDisj_155T21_vs_158T21#300: - _155T21#75 + _158T21#96
                                 + 108120 _155T21prec158T21#206 >= 149
 InitiDisj_158T21_vs_155T21#301: _155T21#75 - _158T21#96
                                 - 108120 _155T21prec158T21#206 >= -107970
 Domain_155T21_vs_165T21#302:    _155T21prec165T21#207 >= 0
 Domain_155T21_vs_166T21#303:    _155T21prec166T21#208 >= 0
 Domain_158T21_vs_165T21#304:    _158T21prec165T21#209 >= 0
 Domain_158T21_vs_166T21#305:    _158T21prec166T21#210 >= 0
 Domain_165T21_vs_166T21#306:    _165T21prec166T21#211 >= 0
 Domain_107T22_vs_155T22#307:    _107T22prec155T22#212 >= 0
 Domain_107T22_vs_158T22#308:    _107T22prec158T22#213 >= 0
 Domain_107T22_vs_165T22#309:    _107T22prec165T22#214 >= 0
 Domain_107T22_vs_166T22#310:    _107T22prec166T22#215 >= 0
 Domain_155T22_vs_158T22#311:    _155T22prec158T22#216 >= 0
 Domain_155T22_vs_165T22#312:    _155T22prec165T22#217 >= 0
 Domain_155T22_vs_166T22#313:    _155T22prec166T22#218 >= 0
 Domain_158T22_vs_165T22#314:    _158T22prec165T22#219 >= 0
 Domain_158T22_vs_166T22#315:    _158T22prec166T22#220 >= 0
 Domain_165T22_vs_166T22#316:    _165T22prec166T22#221 >= 0
 Domain_107T23_vs_158T23#317:    _107T23prec158T23#222 >= 0
 Domain_107T23_vs_165T23#318:    _107T23prec165T23#223 >= 0
 Domain_107T23_vs_166T23#319:    _107T23prec166T23#224 >= 0
 Domain_158T23_vs_165T23#320:    _158T23prec165T23#225 >= 0
 Domain_158T23_vs_166T23#321:    _158T23prec166T23#226 >= 0
 Domain_165T23_vs_166T23#322:    _165T23prec166T23#227 >= 0
 Domain_107T24_vs_158T24#323:    _107T24prec158T24#228 >= 0
 Domain_107T24_vs_165T24#324:    _107T24prec165T24#229 >= 0
 Domain_107T24_vs_166T24#325:    _107T24prec166T24#230 >= 0
 Domain_158T24_vs_165T24#326:    _158T24prec165T24#231 >= 0
 Domain_158T24_vs_166T24#327:    _158T24prec166T24#232 >= 0
 Domain_165T24_vs_166T24#328:    _165T24prec166T24#233 >= 0
 InitiDisj_107T25_vs_158T25#329: - _107T25#46 + _158T25#100
                                 + 108120 _107T25prec158T25#234 >= 983
 InitiDisj_158T25_vs_107T25#330: _107T25#46 - _158T25#100
                                 - 108120 _107T25prec158T25#234 >= -107870
 Domain_107T25_vs_165T25#331:    _107T25prec165T25#235 >= 0
 Domain_107T25_vs_166T25#332:    _107T25prec166T25#236 >= 0
 Domain_158T25_vs_165T25#333:    _158T25prec165T25#237 >= 0
 Domain_158T25_vs_166T25#334:    _158T25prec166T25#238 >= 0
 Domain_165T25_vs_166T25#335:    _165T25prec166T25#239 >= 0
Bounds
 0 <= _165T25#0 <= 2147483647
 0 <= _165T24#1 <= 2147483647
 0 <= _165T23#2 <= 2147483647
 0 <= _165T22#3 <= 2147483647
 0 <= _165T21#4 <= 2147483647
 0 <= _165T20#5 <= 2147483647
 0 <= _165T19#6 <= 2147483647
 0 <= _165T18#7 <= 2147483647
 0 <= _165T17#8 <= 2147483647
 0 <= _165T16#9 <= 2147483647
 0 <= _165T15#10 <= 2147483647
 0 <= _165T14#11 <= 2147483647
 0 <= _165T13#12 <= 2147483647
 0 <= _165T12#13 <= 2147483647
 0 <= _165T11#14 <= 2147483647
 0 <= _165T10#15 <= 2147483647
 0 <= _165T9#16 <= 2147483647
 0 <= _165T8#17 <= 2147483647
 0 <= _165T7#18 <= 2147483647
 0 <= _165T6#19 <= 2147483647
 0 <= _165step1#20 <= 1
 0 <= _165step2#21 <= 1
 0 <= _165step3#22 <= 1
 0 <= _166T6#23 <= 2147483647
 0 <= _166T7#24 <= 2147483647
 0 <= _166T8#25 <= 2147483647
 0 <= _166T9#26 <= 2147483647
 0 <= _166T10#27 <= 2147483647
 0 <= _166T11#28 <= 2147483647
 0 <= _166T12#29 <= 2147483647
 0 <= _166T13#30 <= 2147483647
 0 <= _166T14#31 <= 2147483647
 0 <= _166T15#32 <= 2147483647
 0 <= _166T16#33 <= 2147483647
 0 <= _166T17#34 <= 2147483647
 0 <= _166T18#35 <= 2147483647
 0 <= _166T19#36 <= 2147483647
 0 <= _166T20#37 <= 2147483647
 0 <= _166T21#38 <= 2147483647
 0 <= _166T22#39 <= 2147483647
 0 <= _166T23#40 <= 2147483647
 0 <= _166T24#41 <= 2147483647
 0 <= _166T25#42 <= 2147483647
 0 <= _166step1#43 <= 1
 0 <= _166step2#44 <= 1
 0 <= _166step3#45 <= 1
 0 <= _107T25#46 <= 2147483647
 0 <= _107T24#47 <= 2147483647
 0 <= _107T23#48 <= 2147483647
 0 <= _107T22#49 <= 2147483647
 0 <= _107T21#50 <= 2147483647
 0 <= _107T20#51 <= 2147483647
 0 <= _107T19#52 <= 2147483647
 0 <= _107T18#53 <= 2147483647
 0 <= _107T17#54 <= 2147483647
 0 <= _107T16#55 <= 2147483647
 0 <= _107T15#56 <= 2147483647
 0 <= _107T14#57 <= 2147483647
 0 <= _107T13#58 <= 2147483647
 0 <= _107T12#59 <= 2147483647
 0 <= _107T11#60 <= 2147483647
 0 <= _107T10#61 <= 2147483647
 0 <= _107T9#62 <= 2147483647
 0 <= _107T8#63 <= 2147483647
 0 <= _107T7#64 <= 2147483647
 0 <= _107T6#65 <= 2147483647
 0 <= _107T5#66 <= 2147483647
 0 <= _107T4#67 <= 2147483647
 0 <= _107T3#68 <= 2147483647
 0 <= _107T2#69 <= 2147483647
 0 <= _107T1#70 <= 2147483647
 0 <= _107step1#71 <= 1
 0 <= _107step2#72 <= 1
 0 <= _107step3#73 <= 1
 0 <= _155T22#74 <= 2147483647
 0 <= _155T21#75 <= 2147483647
 0 <= _155T20#76 <= 2147483647
 0 <= _155T19#77 <= 2147483647
 0 <= _155T18#78 <= 2147483647
 0 <= _155T17#79 <= 2147483647
 0 <= _155T16#80 <= 2147483647
 0 <= _155T15#81 <= 2147483647
 0 <= _155T14#82 <= 2147483647
 0 <= _155T13#83 <= 2147483647
 0 <= _155T12#84 <= 2147483647
 0 <= _155T11#85 <= 2147483647
 0 <= _155T10#86 <= 2147483647
 0 <= _155T9#87 <= 2147483647
 0 <= _155T8#88 <= 2147483647
 0 <= _155T7#89 <= 2147483647
 0 <= _155T6#90 <= 2147483647
 0 <= _155step1#91 <= 1
 0 <= _155step2#92 <= 1
 0 <= _155step3#93 <= 1
 0 <= _158T19#94 <= 2147483647
 0 <= _158T20#95 <= 2147483647
 0 <= _158T21#96 <= 2147483647
 0 <= _158T22#97 <= 2147483647
 0 <= _158T23#98 <= 2147483647
 0 <= _158T24#99 <= 2147483647
 0 <= _158T25#100 <= 2147483647
 0 <= _158step1#101 <= 1
 0 <= _158step2#102 <= 1
 0 <= _158step3#103 <= 1
 0 <= _107T6prec155T6#104 <= 1
 0 <= _107T6prec165T6#105 <= 1
 0 <= _107T6prec166T6#106 <= 1
 0 <= _155T6prec165T6#107 <= 1
 0 <= _155T6prec166T6#108 <= 1
 0 <= _165T6prec166T6#109 <= 1
 0 <= _107T7prec155T7#110 <= 1
 0 <= _107T7prec165T7#111 <= 1
 0 <= _107T7prec166T7#112 <= 1
 0 <= _155T7prec165T7#113 <= 1
 0 <= _155T7prec166T7#114 <= 1
 0 <= _165T7prec166T7#115 <= 1
 0 <= _107T8prec155T8#116 <= 1
 0 <= _107T8prec165T8#117 <= 1
 0 <= _107T8prec166T8#118 <= 1
 0 <= _155T8prec165T8#119 <= 1
 0 <= _155T8prec166T8#120 <= 1
 0 <= _165T8prec166T8#121 <= 1
 0 <= _107T9prec155T9#122 <= 1
 0 <= _107T9prec165T9#123 <= 1
 0 <= _107T9prec166T9#124 <= 1
 0 <= _155T9prec165T9#125 <= 1
 0 <= _155T9prec166T9#126 <= 1
 0 <= _165T9prec166T9#127 <= 1
 0 <= _107T10prec155T10#128 <= 1
 0 <= _107T10prec165T10#129 <= 1
 0 <= _107T10prec166T10#130 <= 1
 0 <= _155T10prec165T10#131 <= 1
 0 <= _155T10prec166T10#132 <= 1
 0 <= _165T10prec166T10#133 <= 1
 0 <= _107T11prec155T11#134 <= 1
 0 <= _107T11prec165T11#135 <= 1
 0 <= _107T11prec166T11#136 <= 1
 0 <= _155T11prec165T11#137 <= 1
 0 <= _155T11prec166T11#138 <= 1
 0 <= _165T11prec166T11#139 <= 1
 0 <= _107T12prec155T12#140 <= 1
 0 <= _107T12prec165T12#141 <= 1
 0 <= _107T12prec166T12#142 <= 1
 0 <= _155T12prec165T12#143 <= 1
 0 <= _155T12prec166T12#144 <= 1
 0 <= _165T12prec166T12#145 <= 1
 0 <= _107T13prec155T13#146 <= 1
 0 <= _107T13prec165T13#147 <= 1
 0 <= _107T13prec166T13#148 <= 1
 0 <= _155T13prec165T13#149 <= 1
 0 <= _155T13prec166T13#150 <= 1
 0 <= _165T13prec166T13#151 <= 1
 0 <= _107T14prec155T14#152 <= 1
 0 <= _107T14prec165T14#153 <= 1
 0 <= _107T14prec166T14#154 <= 1
 0 <= _155T14prec165T14#155 <= 1
 0 <= _155T14prec166T14#156 <= 1
 0 <= _165T14prec166T14#157 <= 1
 0 <= _107T15prec155T15#158 <= 1
 0 <= _107T15prec165T15#159 <= 1
 0 <= _107T15prec166T15#160 <= 1
 0 <= _155T15prec165T15#161 <= 1
 0 <= _155T15prec166T15#162 <= 1
 0 <= _165T15prec166T15#163 <= 1
 0 <= _107T16prec155T16#164 <= 1
 0 <= _107T16prec165T16#165 <= 1
 0 <= _107T16prec166T16#166 <= 1
 0 <= _155T16prec165T16#167 <= 1
 0 <= _155T16prec166T16#168 <= 1
 0 <= _165T16prec166T16#169 <= 1
 0 <= _107T17prec155T17#170 <= 1
 0 <= _107T17prec165T17#171 <= 1
 0 <= _107T17prec166T17#172 <= 1
 0 <= _155T17prec165T17#173 <= 1
 0 <= _155T17prec166T17#174 <= 1
 0 <= _165T17prec166T17#175 <= 1
 0 <= _107T18prec155T18#176 <= 1
 0 <= _107T18prec165T18#177 <= 1
 0 <= _107T18prec166T18#178 <= 1
 0 <= _155T18prec165T18#179 <= 1
 0 <= _155T18prec166T18#180 <= 1
 0 <= _165T18prec166T18#181 <= 1
 0 <= _107T19prec155T19#182 <= 1
 0 <= _107T19prec158T19#183 <= 1
 0 <= _107T19prec165T19#184 <= 1
 0 <= _107T19prec166T19#185 <= 1
 0 <= _155T19prec158T19#186 <= 1
 0 <= _155T19prec165T19#187 <= 1
 0 <= _155T19prec166T19#188 <= 1
 0 <= _158T19prec165T19#189 <= 1
 0 <= _158T19prec166T19#190 <= 1
 0 <= _165T19prec166T19#191 <= 1
 0 <= _107T20prec155T20#192 <= 1
 0 <= _107T20prec158T20#193 <= 1
 0 <= _107T20prec165T20#194 <= 1
 0 <= _107T20prec166T20#195 <= 1
 0 <= _155T20prec158T20#196 <= 1
 0 <= _155T20prec165T20#197 <= 1
 0 <= _155T20prec166T20#198 <= 1
 0 <= _158T20prec165T20#199 <= 1
 0 <= _158T20prec166T20#200 <= 1
 0 <= _165T20prec166T20#201 <= 1
 0 <= _107T21prec155T21#202 <= 1
 0 <= _107T21prec158T21#203 <= 1
 0 <= _107T21prec165T21#204 <= 1
 0 <= _107T21prec166T21#205 <= 1
 0 <= _155T21prec158T21#206 <= 1
 0 <= _155T21prec165T21#207 <= 1
 0 <= _155T21prec166T21#208 <= 1
 0 <= _158T21prec165T21#209 <= 1
 0 <= _158T21prec166T21#210 <= 1
 0 <= _165T21prec166T21#211 <= 1
 0 <= _107T22prec155T22#212 <= 1
 0 <= _107T22prec158T22#213 <= 1
 0 <= _107T22prec165T22#214 <= 1
 0 <= _107T22prec166T22#215 <= 1
 0 <= _155T22prec158T22#216 <= 1
 0 <= _155T22prec165T22#217 <= 1
 0 <= _155T22prec166T22#218 <= 1
 0 <= _158T22prec165T22#219 <= 1
 0 <= _158T22prec166T22#220 <= 1
 0 <= _165T22prec166T22#221 <= 1
 0 <= _107T23prec158T23#222 <= 1
 0 <= _107T23prec165T23#223 <= 1
 0 <= _107T23prec166T23#224 <= 1
 0 <= _158T23prec165T23#225 <= 1
 0 <= _158T23prec166T23#226 <= 1
 0 <= _165T23prec166T23#227 <= 1
 0 <= _107T24prec158T24#228 <= 1
 0 <= _107T24prec165T24#229 <= 1
 0 <= _107T24prec166T24#230 <= 1
 0 <= _158T24prec165T24#231 <= 1
 0 <= _158T24prec166T24#232 <= 1
 0 <= _165T24prec166T24#233 <= 1
 0 <= _107T25prec158T25#234 <= 1
 0 <= _107T25prec165T25#235 <= 1
 0 <= _107T25prec166T25#236 <= 1
 0 <= _158T25prec165T25#237 <= 1
 0 <= _158T25prec166T25#238 <= 1
 0 <= _165T25prec166T25#239 <= 1
Binaries
 _165step1#20  _165step2#21  _165step3#22  _166step1#43  _166step2#44 
 _166step3#45  _107step1#71  _107step2#72  _107step3#73  _155step1#91 
 _155step2#92  _155step3#93  _158step1#101  _158step2#102  _158step3#103 
 _107T6prec155T6#104  _107T6prec165T6#105  _107T6prec166T6#106 
 _155T6prec165T6#107  _155T6prec166T6#108  _165T6prec166T6#109 
 _107T7prec155T7#110  _107T7prec165T7#111  _107T7prec166T7#112 
 _155T7prec165T7#113  _155T7prec166T7#114  _165T7prec166T7#115 
 _107T8prec155T8#116  _107T8prec165T8#117  _107T8prec166T8#118 
 _155T8prec165T8#119  _155T8prec166T8#120  _165T8prec166T8#121 
 _107T9prec155T9#122  _107T9prec165T9#123  _107T9prec166T9#124 
 _155T9prec165T9#125  _155T9prec166T9#126  _165T9prec166T9#127 
 _107T10prec155T10#128  _107T10prec165T10#129  _107T10prec166T10#130 
 _155T10prec165T10#131  _155T10prec166T10#132  _165T10prec166T10#133 
 _107T11prec155T11#134  _107T11prec165T11#135  _107T11prec166T11#136 
 _155T11prec165T11#137  _155T11prec166T11#138  _165T11prec166T11#139 
 _107T12prec155T12#140  _107T12prec165T12#141  _107T12prec166T12#142 
 _155T12prec165T12#143  _155T12prec166T12#144  _165T12prec166T12#145 
 _107T13prec155T13#146  _107T13prec165T13#147  _107T13prec166T13#148 
 _155T13prec165T13#149  _155T13prec166T13#150  _165T13prec166T13#151 
 _107T14prec155T14#152  _107T14prec165T14#153  _107T14prec166T14#154 
 _155T14prec165T14#155  _155T14prec166T14#156  _165T14prec166T14#157 
 _107T15prec155T15#158  _107T15prec165T15#159  _107T15prec166T15#160 
 _155T15prec165T15#161  _155T15prec166T15#162  _165T15prec166T15#163 
 _107T16prec155T16#164  _107T16prec165T16#165  _107T16prec166T16#166 
 _155T16prec165T16#167  _155T16prec166T16#168  _165T16prec166T16#169 
 _107T17prec155T17#170  _107T17prec165T17#171  _107T17prec166T17#172 
 _155T17prec165T17#173  _155T17prec166T17#174  _165T17prec166T17#175 
 _107T18prec155T18#176  _107T18prec165T18#177  _107T18prec166T18#178 
 _155T18prec165T18#179  _155T18prec166T18#180  _165T18prec166T18#181 
 _107T19prec155T19#182  _107T19prec158T19#183  _107T19prec165T19#184 
 _107T19prec166T19#185  _155T19prec158T19#186  _155T19prec165T19#187 
 _155T19prec166T19#188  _158T19prec165T19#189  _158T19prec166T19#190 
 _165T19prec166T19#191  _107T20prec155T20#192  _107T20prec158T20#193 
 _107T20prec165T20#194  _107T20prec166T20#195  _155T20prec158T20#196 
 _155T20prec165T20#197  _155T20prec166T20#198  _158T20prec165T20#199 
 _158T20prec166T20#200  _165T20prec166T20#201  _107T21prec155T21#202 
 _107T21prec158T21#203  _107T21prec165T21#204  _107T21prec166T21#205 
 _155T21prec158T21#206  _155T21prec165T21#207  _155T21prec166T21#208 
 _158T21prec165T21#209  _158T21prec166T21#210  _165T21prec166T21#211 
 _107T22prec155T22#212  _107T22prec158T22#213  _107T22prec165T22#214 
 _107T22prec166T22#215  _155T22prec158T22#216  _155T22prec165T22#217 
 _155T22prec166T22#218  _158T22prec165T22#219  _158T22prec166T22#220 
 _165T22prec166T22#221  _107T23prec158T23#222  _107T23prec165T23#223 
 _107T23prec166T23#224  _158T23prec165T23#225  _158T23prec166T23#226 
 _165T23prec166T23#227  _107T24prec158T24#228  _107T24prec165T24#229 
 _107T24prec166T24#230  _158T24prec165T24#231  _158T24prec166T24#232 
 _165T24prec166T24#233  _107T25prec158T25#234  _107T25prec165T25#235 
 _107T25prec166T25#236  _158T25prec165T25#237  _158T25prec166T25#238 
 _165T25prec166T25#239 
End
